\ENCODING=ISO-8859-1
\Problem name: ilog.cplex

Minimize
 obj1: 99517 x1 + 93487 x2 + 103655 x3 + 107127 x4 + 91826 x5 + 109367 x6
       + 108960 x7 + 94888 x8 + 99742 x9 + 93983 x10 + 99667 x11 + 102001 x12
       + 106503 x13 + 107014 x14 + 107031 x15 + 109575 x16 + 101312 x17
       + 91797 x18 + 108704 x19 + 109700 x20 + 106042 x21 + 109348 x22
       + 93159 x23 + 97889 x24 + 109667 x25 + 92339 x26 + 99649 x27
       + 106605 x28 + 98472 x29 + 98604 x30 + 104202 x31 + 99754 x32
       + 91376 x33 + 107022 x34 + 98697 x35 + 99150 x36 + 106567 x37
       + 102573 x38 + 92314 x39 + 95678 x40 + 98198 x41 + 101910 x42
       + 92451 x43 + 90259 x44 + 90019 x45 + 95944 x46 + 95677 x47 + 92702 x48
       + 96597 x49 + 91784 x50 + 98360 x51 + 100137 x52 + 102162 x53
       + 102740 x54 + 101321 x55 + 100982 x56 + 102157 x57 + 102213 x58
       + 93206 x59 + 105226 x60 + 107336 x61 + 103360 x62 + 107192 x63
       + 95344 x64 + 104175 x65 + 96851 x66 + 107178 x67 + 103787 x68
       + 97086 x69 + 104164 x70 + 94948 x71 + 101395 x72 + 104635 x73
       + 102538 x74 + 93177 x75 + 92271 x76 + 100515 x77 + 99856 x78
       + 99469 x79 + 103094 x80 + 109712 x81 + 99750 x82 + 93028 x83
       + 97734 x84 + 105277 x85 + 105610 x86 + 100354 x87 + 95005 x88
       + 107914 x89 + 106873 x90 + 107357 x91 + 100344 x92 + 101081 x93
       + 102222 x94 + 98543 x95 + 108792 x96 + 95408 x97 + 101225 x98
       + 97883 x99 + 108870 x100 + 107983 x101 + 108463 x102 + 100522 x103
       + 94763 x104 + 104422 x105 + 92333 x106 + 99634 x107 + 97682 x108
       + 104607 x109 + 94507 x110 + 108576 x111 + 96379 x112 + 96623 x113
       + 105378 x114 + 94874 x115 + 101449 x116 + 97628 x117 + 95893 x118
       + 99657 x119 + 108444 x120 + 100735 x121 + 98847 x122 + 92463 x123
       + 100464 x124 + 94660 x125 + 95105 x126 + 108858 x127 + 92209 x128
       + 96702 x129 + 101179 x130 + 101737 x131 + 91297 x132 + 105270 x133
       + 93442 x134 + 95532 x135 + 100857 x136 + 98112 x137 + 109889 x138
       + 101175 x139 + 96275 x140 + 100479 x141 + 91880 x142 + 96009 x143
       + 107173 x144 + 108848 x145 + 90401 x146 + 98782 x147 + 102484 x148
       + 90367 x149 + 101874 x150 + 98418 x151 + 93826 x152 + 109134 x153
       + 99010 x154 + 96505 x155 + 95647 x156 + 106980 x157 + 93348 x158
       + 100336 x159 + 104571 x160 + 108684 x161 + 107818 x162 + 95879 x163
       + 104885 x164 + 109322 x165 + 90064 x166 + 98164 x167 + 92334 x168
       + 94959 x169 + 100236 x170 + 100374 x171 + 94142 x172 + 106939 x173
       + 100579 x174 + 102306 x175 + 109633 x176 + 104754 x177 + 98368 x178
       + 93890 x179 + 102871 x180 + 106411 x181 + 92297 x182 + 108606 x183
       + 99868 x184 + 103542 x185 + 101183 x186 + 91814 x187 + 93471 x188
       + 105365 x189 + 92092 x190 + 96773 x191 + 90454 x192 + 108549 x193
       + 91254 x194 + 102224 x195 + 103213 x196 + 109836 x197 + 99682 x198
       + 109134 x199 + 100176 x200 + 104114 x201 + 102074 x202 + 108168 x203
       + 96926 x204 + 104358 x205 + 98549 x206 + 100602 x207 + 103591 x208
       + 93740 x209 + 109696 x210 + 100496 x211 + 102496 x212 + 92921 x213
       + 106349 x214 + 96479 x215 + 101348 x216 + 98814 x217 + 102088 x218
       + 92541 x219 + 94093 x220 + 105048 x221 + 98692 x222 + 99042 x223
       + 104125 x224 + 108918 x225 + 92567 x226 + 107446 x227 + 102664 x228
       + 104748 x229 + 93663 x230 + 95319 x231 + 108891 x232 + 99449 x233
       + 97456 x234 + 91720 x235 + 107828 x236 + 102431 x237 + 105286 x238
       + 107372 x239 + 106945 x240 + 93170 x241 + 94860 x242 + 99145 x243
       + 91422 x244 + 108188 x245 + 94800 x246 + 96893 x247 + 91701 x248
       + 91860 x249 + 103224 x250 + 108351 x251 + 97139 x252 + 91082 x253
       + 106686 x254 + 106167 x255 + 97860 x256 + 94559 x257 + 104400 x258
       + 93068 x259 + 103427 x260 + 92743 x261 + 90681 x262 + 105403 x263
       + 96198 x264 + 96565 x265 + 95492 x266 + 91799 x267 + 92037 x268
       + 98626 x269 + 91257 x270 + 107717 x271 + 99029 x272 + 106150 x273
       + 96716 x274 + 97632 x275 + 105324 x276 + 96259 x277 + 91968 x278
       + 93160 x279 + 98368 x280 + 101051 x281 + 102718 x282 + 97650 x283
       + 99492 x284 + 102464 x285 + 96322 x286 + 95603 x287 + 90222 x288
       + 105046 x289 + 97400 x290 + 98717 x291 + 109638 x292 + 98542 x293
       + 96574 x294 + 99468 x295 + 95729 x296 + 101592 x297 + 92326 x298
       + 107822 x299 + 107943 x300 + 102970 x301 + 106468 x302 + 93798 x303
       + 100214 x304 + 101315 x305 + 95232 x306 + 91372 x307 + 101803 x308
       + 98288 x309 + 106371 x310 + 108666 x311 + 93502 x312 + 99835 x313
       + 92788 x314 + 90778 x315 + 99308 x316 + 100933 x317 + 95427 x318
       + 103963 x319 + 90939 x320 + 92316 x321 + 101364 x322 + 100085 x323
       + 99926 x324 + 99870 x325 + 106565 x326 + 100440 x327 + 102096 x328
       + 90311 x329 + 92285 x330 + 104912 x331 + 105542 x332 + 96577 x333
       + 99712 x334 + 105065 x335 + 94115 x336 + 106906 x337 + 98755 x338
       + 93110 x339 + 105079 x340 + 102649 x341 + 93751 x342 + 92592 x343
       + 91757 x344 + 101605 x345 + 91373 x346 + 91195 x347 + 99832 x348
       + 106059 x349 + 94213 x350 + 91250 x351 + 109442 x352 + 107657 x353
       + 97224 x354 + 109317 x355 + 104262 x356 + 104882 x357 + 93640 x358
       + 92646 x359 + 103487 x360 + 92976 x361 + 92317 x362 + 106576 x363
       + 90958 x364 + 97741 x365 + 92140 x366 + 99631 x367 + 99781 x368
       + 109576 x369 + 101848 x370 + 106146 x371 + 101494 x372 + 100823 x373
       + 107334 x374 + 98764 x375 + 101610 x376 + 98085 x377 + 106352 x378
       + 94173 x379 + 93692 x380 + 98173 x381 + 90335 x382 + 100754 x383
       + 103479 x384 + 102661 x385 + 109992 x386 + 101774 x387 + 98646 x388
       + 107098 x389 + 91097 x390 + 108393 x391 + 107954 x392 + 106295 x393
       + 96728 x394 + 102414 x395 + 96234 x396 + 108044 x397 + 92731 x398
       + 109988 x399 + 104940 x400 + 104197 x401 + 104264 x402 + 104342 x403
       + 91923 x404 + 90277 x405 + 93045 x406 + 108164 x407 + 108664 x408
       + 92572 x409 + 97265 x410 + 94382 x411 + 98327 x412 + 95181 x413
       + 99142 x414 + 107876 x415 + 103839 x416 + 98495 x417 + 98672 x418
       + 90028 x419 + 101611 x420 + 103563 x421 + 101580 x422 + 102938 x423
       + 101791 x424 + 97796 x425 + 92887 x426 + 98212 x427 + 106462 x428
       + 106557 x429 + 103155 x430 + 100026 x431 + 92750 x432 + 109064 x433
       + 104475 x434 + 107646 x435 + 91852 x436 + 106308 x437 + 103636 x438
       + 103978 x439 + 107278 x440 + 95131 x441 + 107481 x442 + 107637 x443
       + 103480 x444 + 109684 x445 + 93812 x446 + 104900 x447 + 105867 x448
       + 99763 x449 + 104250 x450 + 100762 x451 + 91833 x452 + 107628 x453
       + 90741 x454 + 108181 x455 + 108027 x456 + 97524 x457 + 108405 x458
       + 105079 x459 + 100367 x460 + 105477 x461 + 93955 x462 + 109781 x463
       + 90212 x464 + 90823 x465 + 101169 x466 + 97325 x467 + 92613 x468
       + 105508 x469 + 102689 x470 + 101412 x471 + 90708 x472 + 92350 x473
       + 90919 x474 + 99789 x475 + 94101 x476 + 99276 x477 + 99824 x478
       + 104436 x479 + 98457 x480 + 108564 x481 + 92329 x482 + 93255 x483
       + 96320 x484 + 107757 x485 + 100111 x486 + 101369 x487 + 94932 x488
       + 92875 x489 + 108870 x490 + 90387 x491 + 98467 x492 + 105798 x493
       + 96905 x494 + 95119 x495 + 94945 x496 + 100166 x497 + 108958 x498
       + 106457 x499 + 99251 x500 + 104979 x501 + 96830 x502 + 95033 x503
       + 90618 x504 + 105590 x505 + 95811 x506 + 92394 x507 + 91087 x508
       + 96973 x509 + 94275 x510 + 106408 x511 + 96993 x512 + 94169 x513
       + 95798 x514 + 92905 x515 + 105366 x516 + 90476 x517 + 95893 x518
       + 96548 x519 + 97627 x520 + 95187 x521 + 98693 x522 + 90510 x523
       + 94080 x524 + 99608 x525 + 102895 x526 + 106708 x527 + 94436 x528
       + 92583 x529 + 90781 x530 + 96215 x531 + 91962 x532 + 94910 x533
       + 99352 x534 + 92915 x535 + 91847 x536 + 105794 x537 + 98372 x538
       + 92526 x539 + 97979 x540 + 96582 x541 + 100497 x542 + 104326 x543
       + 99517 x544 + 99996 x545 + 93090 x546 + 108678 x547 + 109077 x548
       + 99411 x549 + 93714 x550 + 105147 x551 + 99646 x552 + 91442 x553
       + 108575 x554 + 99345 x555 + 95551 x556 + 90193 x557 + 102723 x558
       + 101239 x559 + 102026 x560 + 93812 x561 + 96884 x562 + 104964 x563
       + 96080 x564 + 102538 x565 + 92231 x566 + 97891 x567 + 91854 x568
       + 103826 x569 + 93301 x570 + 104119 x571 + 97467 x572 + 109423 x573
       + 99270 x574 + 99574 x575 + 95701 x576 + 109073 x577 + 109468 x578
       + 108584 x579 + 101814 x580 + 96075 x581 + 100251 x582 + 105132 x583
       + 98362 x584 + 100975 x585 + 97263 x586 + 95852 x587 + 99113 x588
       + 101467 x589 + 109649 x590 + 96440 x591 + 91978 x592 + 98892 x593
       + 90896 x594 + 108309 x595 + 94323 x596 + 104744 x597 + 104765 x598
       + 98099 x599 + 209927 x600 + 41690 x601 + 43920 x602 + 37861 x603
       + 41484 x604 + 36612 x605 + 41993 x606 + 42533 x607 + 37526 x608
       + 36983 x609 + 39692 x610 + 40695 x611 + 37275 x612 + 39122 x613
       + 39737 x614 + 43098 x615 + 43522 x616 + 37064 x617 + 43821 x618
       + 36330 x619 + 36915 x620 + 41883 x621 + 38761 x622 + 40882 x623
       + 36740 x624 + 36391 x625 + 39593 x626 + 42522 x627 + 40929 x628
       + 36925 x629 + 39153 x630 + 41736 x631 + 39367 x632 + 39239 x633
       + 36432 x634 + 38723 x635 + 37700 x636 + 39627 x637 + 41500 x638
       + 36848 x639 + 42718 x640 + 41169 x641 + 43051 x642 + 41676 x643
       + 37039 x644 + 42609 x645 + 39642 x646 + 43637 x647 + 38190 x648
       + 39675 x649 + 41440 x650 + 36076 x651 + 43308 x652 + 37711 x653
       + 37805 x654 + 36888 x655 + 37584 x656 + 36335 x657 + 41302 x658
       + 43131 x659 + 56190 x660
Subject To
 c1:   - x2 - x12 - x13 + x15 + x16 - x30 + x32 - x42 + x43  = 1
 c2:   - x62 - x72 - x73 + x75 + x76 - x90 + x92 - x102 + x103  = 0
 c3:   - x122 - x132 - x133 + x135 + x136 - x150 + x152 - x162 + x163  = 0
 c4:   - x182 - x192 - x193 + x195 + x196 - x210 + x212 - x222 + x223  = 0
 c5:   - x242 - x252 - x253 + x255 + x256 - x270 + x272 - x282 + x283  = 0
 c6:   - x302 - x312 - x313 + x315 + x316 - x330 + x332 - x342 + x343  = 0
 c7:   - x362 - x372 - x373 + x375 + x376 - x390 + x392 - x402 + x403  = 0
 c8:   - x422 - x432 - x433 + x435 + x436 - x450 + x452 - x462 + x463  = 0
 c9:   - x482 - x492 - x493 + x495 + x496 - x510 + x512 - x522 + x523  = 0
 c10:  - x542 - x552 - x553 + x555 + x556 - x570 + x572 - x582 + x583  = 0
 c11:  x1 + x6 + x7 - x11 - x21 + x27 + x34 - x44 - x48 - x50 - x51 - x59  = 0
 c12:  x61 + x66 + x67 - x71 - x81 + x87 + x94 - x104 - x108 - x110 - x111
       - x119  = -1
 c13:  x121 + x126 + x127 - x131 - x141 + x147 + x154 - x164 - x168 - x170
       - x171 - x179  = -1
 c14:  x181 + x186 + x187 - x191 - x201 + x207 + x214 - x224 - x228 - x230
       - x231 - x239  = 0
 c15:  x241 + x246 + x247 - x251 - x261 + x267 + x274 - x284 - x288 - x290
       - x291 - x299  = 0
 c16:  x301 + x306 + x307 - x311 - x321 + x327 + x334 - x344 - x348 - x350
       - x351 - x359  = 1
 c17:  x361 + x366 + x367 - x371 - x381 + x387 + x394 - x404 - x408 - x410
       - x411 - x419  = 0
 c18:  x421 + x426 + x427 - x431 - x441 + x447 + x454 - x464 - x468 - x470
       - x471 - x479  = 0
 c19:  x481 + x486 + x487 - x491 - x501 + x507 + x514 - x524 - x528 - x530
       - x531 - x539  = -1
 c20:  x541 + x546 + x547 - x551 - x561 + x567 + x574 - x584 - x588 - x590
       - x591 - x599  = 0
 c21:  x9 + x14 - x16 - x28 + x38 - x40 - x45 + x48 + x49 - x53 + x57 - x58
        = 0
 c22:  x69 + x74 - x76 - x88 + x98 - x100 - x105 + x108 + x109 - x113 + x117
       - x118  = 0
 c23:  x129 + x134 - x136 - x148 + x158 - x160 - x165 + x168 + x169 - x173
       + x177 - x178  = 0
 c24:  x189 + x194 - x196 - x208 + x218 - x220 - x225 + x228 + x229 - x233
       + x237 - x238  = 0
 c25:  x249 + x254 - x256 - x268 + x278 - x280 - x285 + x288 + x289 - x293
       + x297 - x298  = 0
 c26:  x309 + x314 - x316 - x328 + x338 - x340 - x345 + x348 + x349 - x353
       + x357 - x358  = 0
 c27:  x369 + x374 - x376 - x388 + x398 - x400 - x405 + x408 + x409 - x413
       + x417 - x418  = 0
 c28:  x429 + x434 - x436 - x448 + x458 - x460 - x465 + x468 + x469 - x473
       + x477 - x478  = 0
 c29:  x489 + x494 - x496 - x508 + x518 - x520 - x525 + x528 + x529 - x533
       + x537 - x538  = 0
 c30:  x549 + x554 - x556 - x568 + x578 - x580 - x585 + x588 + x589 - x593
       + x597 - x598  = 0
 c31:  x12 - x23 - x24 + x28 + x35 - x37 - x38 + x41 + x44 - x52 - x54 - x56
       + x60  = -1
 c32:  x72 - x83 - x84 + x88 + x95 - x97 - x98 + x101 + x104 - x112 - x114
       - x116 + x120  = 0
 c33:  x132 - x143 - x144 + x148 + x155 - x157 - x158 + x161 + x164 - x172
       - x174 - x176 + x180  = 1
 c34:  x192 - x203 - x204 + x208 + x215 - x217 - x218 + x221 + x224 - x232
       - x234 - x236 + x240  = 0
 c35:  x252 - x263 - x264 + x268 + x275 - x277 - x278 + x281 + x284 - x292
       - x294 - x296 + x300  = 0
 c36:  x312 - x323 - x324 + x328 + x335 - x337 - x338 + x341 + x344 - x352
       - x354 - x356 + x360  = -1
 c37:  x372 - x383 - x384 + x388 + x395 - x397 - x398 + x401 + x404 - x412
       - x414 - x416 + x420  = -1
 c38:  x432 - x443 - x444 + x448 + x455 - x457 - x458 + x461 + x464 - x472
       - x474 - x476 + x480  = 1
 c39:  x492 - x503 - x504 + x508 + x515 - x517 - x518 + x521 + x524 - x532
       - x534 - x536 + x540  = 0
 c40:  x552 - x563 - x564 + x568 + x575 - x577 - x578 + x581 + x584 - x592
       - x594 - x596 + x600  = 0
 c41:  - x4 - x14 + x17 - x19 + x21 - x27 + x29 + x30 + x36 + x47 + x54 - x55
        = 0
 c42:  - x64 - x74 + x77 - x79 + x81 - x87 + x89 + x90 + x96 + x107 + x114
       - x115  = 0
 c43:  - x124 - x134 + x137 - x139 + x141 - x147 + x149 + x150 + x156 + x167
       + x174 - x175  = 0
 c44:  - x184 - x194 + x197 - x199 + x201 - x207 + x209 + x210 + x216 + x227
       + x234 - x235  = 0
 c45:  - x244 - x254 + x257 - x259 + x261 - x267 + x269 + x270 + x276 + x287
       + x294 - x295  = -1
 c46:  - x304 - x314 + x317 - x319 + x321 - x327 + x329 + x330 + x336 + x347
       + x354 - x355  = 0
 c47:  - x364 - x374 + x377 - x379 + x381 - x387 + x389 + x390 + x396 + x407
       + x414 - x415  = 0
 c48:  - x424 - x434 + x437 - x439 + x441 - x447 + x449 + x450 + x456 + x467
       + x474 - x475  = 0
 c49:  - x484 - x494 + x497 - x499 + x501 - x507 + x509 + x510 + x516 + x527
       + x534 - x535  = 0
 c50:  - x544 - x554 + x557 - x559 + x561 - x567 + x569 + x570 + x576 + x587
       + x594 - x595  = 0
 c51:  - x5 - x9 + x10 - x18 + x22 + x24 - x26 - x29 + x33 - x35 - x43 + x50
       + x53  = 0
 c52:  - x65 - x69 + x70 - x78 + x82 + x84 - x86 - x89 + x93 - x95 - x103
       + x110 + x113  = 0
 c53:  - x125 - x129 + x130 - x138 + x142 + x144 - x146 - x149 + x153 - x155
       - x163 + x170 + x173  = 0
 c54:  - x185 - x189 + x190 - x198 + x202 + x204 - x206 - x209 + x213 - x215
       - x223 + x230 + x233  = -1
 c55:  - x245 - x249 + x250 - x258 + x262 + x264 - x266 - x269 + x273 - x275
       - x283 + x290 + x293  = 0
 c56:  - x305 - x309 + x310 - x318 + x322 + x324 - x326 - x329 + x333 - x335
       - x343 + x350 + x353  = 0
 c57:  - x365 - x369 + x370 - x378 + x382 + x384 - x386 - x389 + x393 - x395
       - x403 + x410 + x413  = 0
 c58:  - x425 - x429 + x430 - x438 + x442 + x444 - x446 - x449 + x453 - x455
       - x463 + x470 + x473  = 0
 c59:  - x485 - x489 + x490 - x498 + x502 + x504 - x506 - x509 + x513 - x515
       - x523 + x530 + x533  = 0
 c60:  - x545 - x549 + x550 - x558 + x562 + x564 - x566 - x569 + x573 - x575
       - x583 + x590 + x593  = 0
 c61:  x13 + x19 - x22 + x25 - x32 - x34 - x36 + x46 + x51 + x56 + x58  = 0
 c62:  x73 + x79 - x82 + x85 - x92 - x94 - x96 + x106 + x111 + x116 + x118  = 0
 c63:  x133 + x139 - x142 + x145 - x152 - x154 - x156 + x166 + x171 + x176
       + x178  = 0
 c64:  x193 + x199 - x202 + x205 - x212 - x214 - x216 + x226 + x231 + x236
       + x238  = 0
 c65:  x253 + x259 - x262 + x265 - x272 - x274 - x276 + x286 + x291 + x296
       + x298  = 0
 c66:  x313 + x319 - x322 + x325 - x332 - x334 - x336 + x346 + x351 + x356
       + x358  = 0
 c67:  x373 + x379 - x382 + x385 - x392 - x394 - x396 + x406 + x411 + x416
       + x418  = 1
 c68:  x433 + x439 - x442 + x445 - x452 - x454 - x456 + x466 + x471 + x476
       + x478  = -1
 c69:  x493 + x499 - x502 + x505 - x512 - x514 - x516 + x526 + x531 + x536
       + x538  = 0
 c70:  x553 + x559 - x562 + x565 - x572 - x574 - x576 + x586 + x591 + x596
       + x598  = -1
 c71:  - x1 + x5 - x10 + x20 - x25 + x31 + x37 - x39 + x45 + x55 - x57 - x60
        = 0
 c72:  - x61 + x65 - x70 + x80 - x85 + x91 + x97 - x99 + x105 + x115 - x117
       - x120  = 1
 c73:  - x121 + x125 - x130 + x140 - x145 + x151 + x157 - x159 + x165 + x175
       - x177 - x180  = 0
 c74:  - x181 + x185 - x190 + x200 - x205 + x211 + x217 - x219 + x225 + x235
       - x237 - x240  = 0
 c75:  - x241 + x245 - x250 + x260 - x265 + x271 + x277 - x279 + x285 + x295
       - x297 - x300  = 0
 c76:  - x301 + x305 - x310 + x320 - x325 + x331 + x337 - x339 + x345 + x355
       - x357 - x360  = 0
 c77:  - x361 + x365 - x370 + x380 - x385 + x391 + x397 - x399 + x405 + x415
       - x417 - x420  = 0
 c78:  - x421 + x425 - x430 + x440 - x445 + x451 + x457 - x459 + x465 + x475
       - x477 - x480  = 0
 c79:  - x481 + x485 - x490 + x500 - x505 + x511 + x517 - x519 + x525 + x535
       - x537 - x540  = 1
 c80:  - x541 + x545 - x550 + x560 - x565 + x571 + x577 - x579 + x585 + x595
       - x597 - x600  = 0
 c81:  x2 + x3 + x4 - x7 - x8 + x11 - x17 + x26 - x31 - x33 + x40 - x41 - x49
       + x52  = 0
 c82:  x62 + x63 + x64 - x67 - x68 + x71 - x77 + x86 - x91 - x93 + x100 - x101
       - x109 + x112  = 0
 c83:  x122 + x123 + x124 - x127 - x128 + x131 - x137 + x146 - x151 - x153
       + x160 - x161 - x169 + x172  = 0
 c84:  x182 + x183 + x184 - x187 - x188 + x191 - x197 + x206 - x211 - x213
       + x220 - x221 - x229 + x232  = 0
 c85:  x242 + x243 + x244 - x247 - x248 + x251 - x257 + x266 - x271 - x273
       + x280 - x281 - x289 + x292  = 0
 c86:  x302 + x303 + x304 - x307 - x308 + x311 - x317 + x326 - x331 - x333
       + x340 - x341 - x349 + x352  = 0
 c87:  x362 + x363 + x364 - x367 - x368 + x371 - x377 + x386 - x391 - x393
       + x400 - x401 - x409 + x412  = 0
 c88:  x422 + x423 + x424 - x427 - x428 + x431 - x437 + x446 - x451 - x453
       + x460 - x461 - x469 + x472  = 0
 c89:  x482 + x483 + x484 - x487 - x488 + x491 - x497 + x506 - x511 - x513
       + x520 - x521 - x529 + x532  = 0
 c90:  x542 + x543 + x544 - x547 - x548 + x551 - x557 + x566 - x571 - x573
       + x580 - x581 - x589 + x592  = 1
 c91:  - x3 - x6 + x8 - x15 + x18 - x20 + x23 + x39 + x42 - x46 - x47 + x59
        = 0
 c92:  - x63 - x66 + x68 - x75 + x78 - x80 + x83 + x99 + x102 - x106 - x107
       + x119  = 0
 c93:  - x123 - x126 + x128 - x135 + x138 - x140 + x143 + x159 + x162 - x166
       - x167 + x179  = 0
 c94:  - x183 - x186 + x188 - x195 + x198 - x200 + x203 + x219 + x222 - x226
       - x227 + x239  = 1
 c95:  - x243 - x246 + x248 - x255 + x258 - x260 + x263 + x279 + x282 - x286
       - x287 + x299  = 1
 c96:  - x303 - x306 + x308 - x315 + x318 - x320 + x323 + x339 + x342 - x346
       - x347 + x359  = 0
 c97:  - x363 - x366 + x368 - x375 + x378 - x380 + x383 + x399 + x402 - x406
       - x407 + x419  = 0
 c98:  - x423 - x426 + x428 - x435 + x438 - x440 + x443 + x459 + x462 - x466
       - x467 + x479  = 0
 c99:  - x483 - x486 + x488 - x495 + x498 - x500 + x503 + x519 + x522 - x526
       - x527 + x539  = 0
 c100: - x543 - x546 + x548 - x555 + x558 - x560 + x563 + x579 + x582 - x586
       - x587 + x599  = 0
 c101: 4 x1 + 4 x61 + 4 x121 + 4 x181 + 4 x241 + 4 x301 + 4 x361 + 4 x421
       + 4 x481 + 4 x541 - 5 x601 <= 0
 c102: 4 x2 + 4 x62 + 4 x122 + 4 x182 + 4 x242 + 4 x302 + 4 x362 + 4 x422
       + 4 x482 + 4 x542 - 5 x602 <= 0
 c103: 4 x3 + 4 x63 + 4 x123 + 4 x183 + 4 x243 + 4 x303 + 4 x363 + 4 x423
       + 4 x483 + 4 x543 - 5 x603 <= 0
 c104: 4 x4 + 4 x64 + 4 x124 + 4 x184 + 4 x244 + 4 x304 + 4 x364 + 4 x424
       + 4 x484 + 4 x544 - 5 x604 <= 0
 c105: 4 x5 + 4 x65 + 4 x125 + 4 x185 + 4 x245 + 4 x305 + 4 x365 + 4 x425
       + 4 x485 + 4 x545 - 5 x605 <= 0
 c106: 4 x6 + 4 x66 + 4 x126 + 4 x186 + 4 x246 + 4 x306 + 4 x366 + 4 x426
       + 4 x486 + 4 x546 - 5 x606 <= 0
 c107: 4 x7 + 4 x67 + 4 x127 + 4 x187 + 4 x247 + 4 x307 + 4 x367 + 4 x427
       + 4 x487 + 4 x547 - 5 x607 <= 0
 c108: 4 x8 + 4 x68 + 4 x128 + 4 x188 + 4 x248 + 4 x308 + 4 x368 + 4 x428
       + 4 x488 + 4 x548 - 5 x608 <= 0
 c109: 4 x9 + 4 x69 + 4 x129 + 4 x189 + 4 x249 + 4 x309 + 4 x369 + 4 x429
       + 4 x489 + 4 x549 - 5 x609 <= 0
 c110: 4 x10 + 4 x70 + 4 x130 + 4 x190 + 4 x250 + 4 x310 + 4 x370 + 4 x430
       + 4 x490 + 4 x550 - 5 x610 <= 0
 c111: 4 x11 + 4 x71 + 4 x131 + 4 x191 + 4 x251 + 4 x311 + 4 x371 + 4 x431
       + 4 x491 + 4 x551 - 5 x611 <= 0
 c112: 4 x12 + 4 x72 + 4 x132 + 4 x192 + 4 x252 + 4 x312 + 4 x372 + 4 x432
       + 4 x492 + 4 x552 - 5 x612 <= 0
 c113: 4 x13 + 4 x73 + 4 x133 + 4 x193 + 4 x253 + 4 x313 + 4 x373 + 4 x433
       + 4 x493 + 4 x553 - 5 x613 <= 0
 c114: 4 x14 + 4 x74 + 4 x134 + 4 x194 + 4 x254 + 4 x314 + 4 x374 + 4 x434
       + 4 x494 + 4 x554 - 5 x614 <= 0
 c115: 4 x15 + 4 x75 + 4 x135 + 4 x195 + 4 x255 + 4 x315 + 4 x375 + 4 x435
       + 4 x495 + 4 x555 - 5 x615 <= 0
 c116: 4 x16 + 4 x76 + 4 x136 + 4 x196 + 4 x256 + 4 x316 + 4 x376 + 4 x436
       + 4 x496 + 4 x556 - 5 x616 <= 0
 c117: 4 x17 + 4 x77 + 4 x137 + 4 x197 + 4 x257 + 4 x317 + 4 x377 + 4 x437
       + 4 x497 + 4 x557 - 5 x617 <= 0
 c118: 4 x18 + 4 x78 + 4 x138 + 4 x198 + 4 x258 + 4 x318 + 4 x378 + 4 x438
       + 4 x498 + 4 x558 - 5 x618 <= 0
 c119: 4 x19 + 4 x79 + 4 x139 + 4 x199 + 4 x259 + 4 x319 + 4 x379 + 4 x439
       + 4 x499 + 4 x559 - 5 x619 <= 0
 c120: 4 x20 + 4 x80 + 4 x140 + 4 x200 + 4 x260 + 4 x320 + 4 x380 + 4 x440
       + 4 x500 + 4 x560 - 5 x620 <= 0
 c121: 4 x21 + 4 x81 + 4 x141 + 4 x201 + 4 x261 + 4 x321 + 4 x381 + 4 x441
       + 4 x501 + 4 x561 - 5 x621 <= 0
 c122: 4 x22 + 4 x82 + 4 x142 + 4 x202 + 4 x262 + 4 x322 + 4 x382 + 4 x442
       + 4 x502 + 4 x562 - 5 x622 <= 0
 c123: 4 x23 + 4 x83 + 4 x143 + 4 x203 + 4 x263 + 4 x323 + 4 x383 + 4 x443
       + 4 x503 + 4 x563 - 5 x623 <= 0
 c124: 4 x24 + 4 x84 + 4 x144 + 4 x204 + 4 x264 + 4 x324 + 4 x384 + 4 x444
       + 4 x504 + 4 x564 - 5 x624 <= 0
 c125: 4 x25 + 4 x85 + 4 x145 + 4 x205 + 4 x265 + 4 x325 + 4 x385 + 4 x445
       + 4 x505 + 4 x565 - 5 x625 <= 0
 c126: 4 x26 + 4 x86 + 4 x146 + 4 x206 + 4 x266 + 4 x326 + 4 x386 + 4 x446
       + 4 x506 + 4 x566 - 5 x626 <= 0
 c127: 4 x27 + 4 x87 + 4 x147 + 4 x207 + 4 x267 + 4 x327 + 4 x387 + 4 x447
       + 4 x507 + 4 x567 - 5 x627 <= 0
 c128: 4 x28 + 4 x88 + 4 x148 + 4 x208 + 4 x268 + 4 x328 + 4 x388 + 4 x448
       + 4 x508 + 4 x568 - 5 x628 <= 0
 c129: 4 x29 + 4 x89 + 4 x149 + 4 x209 + 4 x269 + 4 x329 + 4 x389 + 4 x449
       + 4 x509 + 4 x569 - 5 x629 <= 0
 c130: 4 x30 + 4 x90 + 4 x150 + 4 x210 + 4 x270 + 4 x330 + 4 x390 + 4 x450
       + 4 x510 + 4 x570 - 5 x630 <= 0
 c131: 4 x31 + 4 x91 + 4 x151 + 4 x211 + 4 x271 + 4 x331 + 4 x391 + 4 x451
       + 4 x511 + 4 x571 - 5 x631 <= 0
 c132: 4 x32 + 4 x92 + 4 x152 + 4 x212 + 4 x272 + 4 x332 + 4 x392 + 4 x452
       + 4 x512 + 4 x572 - 5 x632 <= 0
 c133: 4 x33 + 4 x93 + 4 x153 + 4 x213 + 4 x273 + 4 x333 + 4 x393 + 4 x453
       + 4 x513 + 4 x573 - 5 x633 <= 0
 c134: 4 x34 + 4 x94 + 4 x154 + 4 x214 + 4 x274 + 4 x334 + 4 x394 + 4 x454
       + 4 x514 + 4 x574 - 5 x634 <= 0
 c135: 4 x35 + 4 x95 + 4 x155 + 4 x215 + 4 x275 + 4 x335 + 4 x395 + 4 x455
       + 4 x515 + 4 x575 - 5 x635 <= 0
 c136: 4 x36 + 4 x96 + 4 x156 + 4 x216 + 4 x276 + 4 x336 + 4 x396 + 4 x456
       + 4 x516 + 4 x576 - 5 x636 <= 0
 c137: 4 x37 + 4 x97 + 4 x157 + 4 x217 + 4 x277 + 4 x337 + 4 x397 + 4 x457
       + 4 x517 + 4 x577 - 5 x637 <= 0
 c138: 4 x38 + 4 x98 + 4 x158 + 4 x218 + 4 x278 + 4 x338 + 4 x398 + 4 x458
       + 4 x518 + 4 x578 - 5 x638 <= 0
 c139: 4 x39 + 4 x99 + 4 x159 + 4 x219 + 4 x279 + 4 x339 + 4 x399 + 4 x459
       + 4 x519 + 4 x579 - 5 x639 <= 0
 c140: 4 x40 + 4 x100 + 4 x160 + 4 x220 + 4 x280 + 4 x340 + 4 x400 + 4 x460
       + 4 x520 + 4 x580 - 5 x640 <= 0
 c141: 4 x41 + 4 x101 + 4 x161 + 4 x221 + 4 x281 + 4 x341 + 4 x401 + 4 x461
       + 4 x521 + 4 x581 - 5 x641 <= 0
 c142: 4 x42 + 4 x102 + 4 x162 + 4 x222 + 4 x282 + 4 x342 + 4 x402 + 4 x462
       + 4 x522 + 4 x582 - 5 x642 <= 0
 c143: 4 x43 + 4 x103 + 4 x163 + 4 x223 + 4 x283 + 4 x343 + 4 x403 + 4 x463
       + 4 x523 + 4 x583 - 5 x643 <= 0
 c144: 4 x44 + 4 x104 + 4 x164 + 4 x224 + 4 x284 + 4 x344 + 4 x404 + 4 x464
       + 4 x524 + 4 x584 - 5 x644 <= 0
 c145: 4 x45 + 4 x105 + 4 x165 + 4 x225 + 4 x285 + 4 x345 + 4 x405 + 4 x465
       + 4 x525 + 4 x585 - 5 x645 <= 0
 c146: 4 x46 + 4 x106 + 4 x166 + 4 x226 + 4 x286 + 4 x346 + 4 x406 + 4 x466
       + 4 x526 + 4 x586 - 5 x646 <= 0
 c147: 4 x47 + 4 x107 + 4 x167 + 4 x227 + 4 x287 + 4 x347 + 4 x407 + 4 x467
       + 4 x527 + 4 x587 - 5 x647 <= 0
 c148: 4 x48 + 4 x108 + 4 x168 + 4 x228 + 4 x288 + 4 x348 + 4 x408 + 4 x468
       + 4 x528 + 4 x588 - 5 x648 <= 0
 c149: 4 x49 + 4 x109 + 4 x169 + 4 x229 + 4 x289 + 4 x349 + 4 x409 + 4 x469
       + 4 x529 + 4 x589 - 5 x649 <= 0
 c150: 4 x50 + 4 x110 + 4 x170 + 4 x230 + 4 x290 + 4 x350 + 4 x410 + 4 x470
       + 4 x530 + 4 x590 - 5 x650 <= 0
 c151: 4 x51 + 4 x111 + 4 x171 + 4 x231 + 4 x291 + 4 x351 + 4 x411 + 4 x471
       + 4 x531 + 4 x591 - 5 x651 <= 0
 c152: 4 x52 + 4 x112 + 4 x172 + 4 x232 + 4 x292 + 4 x352 + 4 x412 + 4 x472
       + 4 x532 + 4 x592 - 5 x652 <= 0
 c153: 4 x53 + 4 x113 + 4 x173 + 4 x233 + 4 x293 + 4 x353 + 4 x413 + 4 x473
       + 4 x533 + 4 x593 - 5 x653 <= 0
 c154: 4 x54 + 4 x114 + 4 x174 + 4 x234 + 4 x294 + 4 x354 + 4 x414 + 4 x474
       + 4 x534 + 4 x594 - 5 x654 <= 0
 c155: 4 x55 + 4 x115 + 4 x175 + 4 x235 + 4 x295 + 4 x355 + 4 x415 + 4 x475
       + 4 x535 + 4 x595 - 5 x655 <= 0
 c156: 4 x56 + 4 x116 + 4 x176 + 4 x236 + 4 x296 + 4 x356 + 4 x416 + 4 x476
       + 4 x536 + 4 x596 - 5 x656 <= 0
 c157: 4 x57 + 4 x117 + 4 x177 + 4 x237 + 4 x297 + 4 x357 + 4 x417 + 4 x477
       + 4 x537 + 4 x597 - 5 x657 <= 0
 c158: 4 x58 + 4 x118 + 4 x178 + 4 x238 + 4 x298 + 4 x358 + 4 x418 + 4 x478
       + 4 x538 + 4 x598 - 5 x658 <= 0
 c159: 4 x59 + 4 x119 + 4 x179 + 4 x239 + 4 x299 + 4 x359 + 4 x419 + 4 x479
       + 4 x539 + 4 x599 - 5 x659 <= 0
 c160: 4 x60 + 4 x120 + 4 x180 + 4 x240 + 4 x300 + 4 x360 + 4 x420 + 4 x480
       + 4 x540 + 4 x600 - 5 x660 <= 0
Bounds
 0 <= x1 <= 1
 0 <= x2 <= 1
 0 <= x3 <= 1
 0 <= x4 <= 1
 0 <= x5 <= 1
 0 <= x6 <= 1
 0 <= x7 <= 1
 0 <= x8 <= 1
 0 <= x9 <= 1
 0 <= x10 <= 1
 0 <= x11 <= 1
 0 <= x12 <= 1
 0 <= x13 <= 1
 0 <= x14 <= 1
 0 <= x15 <= 1
 0 <= x16 <= 1
 0 <= x17 <= 1
 0 <= x18 <= 1
 0 <= x19 <= 1
 0 <= x20 <= 1
 0 <= x21 <= 1
 0 <= x22 <= 1
 0 <= x23 <= 1
 0 <= x24 <= 1
 0 <= x25 <= 1
 0 <= x26 <= 1
 0 <= x27 <= 1
 0 <= x28 <= 1
 0 <= x29 <= 1
 0 <= x30 <= 1
 0 <= x31 <= 1
 0 <= x32 <= 1
 0 <= x33 <= 1
 0 <= x34 <= 1
 0 <= x35 <= 1
 0 <= x36 <= 1
 0 <= x37 <= 1
 0 <= x38 <= 1
 0 <= x39 <= 1
 0 <= x40 <= 1
 0 <= x41 <= 1
 0 <= x42 <= 1
 0 <= x43 <= 1
 0 <= x44 <= 1
 0 <= x45 <= 1
 0 <= x46 <= 1
 0 <= x47 <= 1
 0 <= x48 <= 1
 0 <= x49 <= 1
 0 <= x50 <= 1
 0 <= x51 <= 1
 0 <= x52 <= 1
 0 <= x53 <= 1
 0 <= x54 <= 1
 0 <= x55 <= 1
 0 <= x56 <= 1
 0 <= x57 <= 1
 0 <= x58 <= 1
 0 <= x59 <= 1
 0 <= x60 <= 1
 0 <= x61 <= 1
 0 <= x62 <= 1
 0 <= x63 <= 1
 0 <= x64 <= 1
 0 <= x65 <= 1
 0 <= x66 <= 1
 0 <= x67 <= 1
 0 <= x68 <= 1
 0 <= x69 <= 1
 0 <= x70 <= 1
 0 <= x71 <= 1
 0 <= x72 <= 1
 0 <= x73 <= 1
 0 <= x74 <= 1
 0 <= x75 <= 1
 0 <= x76 <= 1
 0 <= x77 <= 1
 0 <= x78 <= 1
 0 <= x79 <= 1
 0 <= x80 <= 1
 0 <= x81 <= 1
 0 <= x82 <= 1
 0 <= x83 <= 1
 0 <= x84 <= 1
 0 <= x85 <= 1
 0 <= x86 <= 1
 0 <= x87 <= 1
 0 <= x88 <= 1
 0 <= x89 <= 1
 0 <= x90 <= 1
 0 <= x91 <= 1
 0 <= x92 <= 1
 0 <= x93 <= 1
 0 <= x94 <= 1
 0 <= x95 <= 1
 0 <= x96 <= 1
 0 <= x97 <= 1
 0 <= x98 <= 1
 0 <= x99 <= 1
 0 <= x100 <= 1
 0 <= x101 <= 1
 0 <= x102 <= 1
 0 <= x103 <= 1
 0 <= x104 <= 1
 0 <= x105 <= 1
 0 <= x106 <= 1
 0 <= x107 <= 1
 0 <= x108 <= 1
 0 <= x109 <= 1
 0 <= x110 <= 1
 0 <= x111 <= 1
 0 <= x112 <= 1
 0 <= x113 <= 1
 0 <= x114 <= 1
 0 <= x115 <= 1
 0 <= x116 <= 1
 0 <= x117 <= 1
 0 <= x118 <= 1
 0 <= x119 <= 1
 0 <= x120 <= 1
 0 <= x121 <= 1
 0 <= x122 <= 1
 0 <= x123 <= 1
 0 <= x124 <= 1
 0 <= x125 <= 1
 0 <= x126 <= 1
 0 <= x127 <= 1
 0 <= x128 <= 1
 0 <= x129 <= 1
 0 <= x130 <= 1
 0 <= x131 <= 1
 0 <= x132 <= 1
 0 <= x133 <= 1
 0 <= x134 <= 1
 0 <= x135 <= 1
 0 <= x136 <= 1
 0 <= x137 <= 1
 0 <= x138 <= 1
 0 <= x139 <= 1
 0 <= x140 <= 1
 0 <= x141 <= 1
 0 <= x142 <= 1
 0 <= x143 <= 1
 0 <= x144 <= 1
 0 <= x145 <= 1
 0 <= x146 <= 1
 0 <= x147 <= 1
 0 <= x148 <= 1
 0 <= x149 <= 1
 0 <= x150 <= 1
 0 <= x151 <= 1
 0 <= x152 <= 1
 0 <= x153 <= 1
 0 <= x154 <= 1
 0 <= x155 <= 1
 0 <= x156 <= 1
 0 <= x157 <= 1
 0 <= x158 <= 1
 0 <= x159 <= 1
 0 <= x160 <= 1
 0 <= x161 <= 1
 0 <= x162 <= 1
 0 <= x163 <= 1
 0 <= x164 <= 1
 0 <= x165 <= 1
 0 <= x166 <= 1
 0 <= x167 <= 1
 0 <= x168 <= 1
 0 <= x169 <= 1
 0 <= x170 <= 1
 0 <= x171 <= 1
 0 <= x172 <= 1
 0 <= x173 <= 1
 0 <= x174 <= 1
 0 <= x175 <= 1
 0 <= x176 <= 1
 0 <= x177 <= 1
 0 <= x178 <= 1
 0 <= x179 <= 1
 0 <= x180 <= 1
 0 <= x181 <= 1
 0 <= x182 <= 1
 0 <= x183 <= 1
 0 <= x184 <= 1
 0 <= x185 <= 1
 0 <= x186 <= 1
 0 <= x187 <= 1
 0 <= x188 <= 1
 0 <= x189 <= 1
 0 <= x190 <= 1
 0 <= x191 <= 1
 0 <= x192 <= 1
 0 <= x193 <= 1
 0 <= x194 <= 1
 0 <= x195 <= 1
 0 <= x196 <= 1
 0 <= x197 <= 1
 0 <= x198 <= 1
 0 <= x199 <= 1
 0 <= x200 <= 1
 0 <= x201 <= 1
 0 <= x202 <= 1
 0 <= x203 <= 1
 0 <= x204 <= 1
 0 <= x205 <= 1
 0 <= x206 <= 1
 0 <= x207 <= 1
 0 <= x208 <= 1
 0 <= x209 <= 1
 0 <= x210 <= 1
 0 <= x211 <= 1
 0 <= x212 <= 1
 0 <= x213 <= 1
 0 <= x214 <= 1
 0 <= x215 <= 1
 0 <= x216 <= 1
 0 <= x217 <= 1
 0 <= x218 <= 1
 0 <= x219 <= 1
 0 <= x220 <= 1
 0 <= x221 <= 1
 0 <= x222 <= 1
 0 <= x223 <= 1
 0 <= x224 <= 1
 0 <= x225 <= 1
 0 <= x226 <= 1
 0 <= x227 <= 1
 0 <= x228 <= 1
 0 <= x229 <= 1
 0 <= x230 <= 1
 0 <= x231 <= 1
 0 <= x232 <= 1
 0 <= x233 <= 1
 0 <= x234 <= 1
 0 <= x235 <= 1
 0 <= x236 <= 1
 0 <= x237 <= 1
 0 <= x238 <= 1
 0 <= x239 <= 1
 0 <= x240 <= 1
 0 <= x241 <= 1
 0 <= x242 <= 1
 0 <= x243 <= 1
 0 <= x244 <= 1
 0 <= x245 <= 1
 0 <= x246 <= 1
 0 <= x247 <= 1
 0 <= x248 <= 1
 0 <= x249 <= 1
 0 <= x250 <= 1
 0 <= x251 <= 1
 0 <= x252 <= 1
 0 <= x253 <= 1
 0 <= x254 <= 1
 0 <= x255 <= 1
 0 <= x256 <= 1
 0 <= x257 <= 1
 0 <= x258 <= 1
 0 <= x259 <= 1
 0 <= x260 <= 1
 0 <= x261 <= 1
 0 <= x262 <= 1
 0 <= x263 <= 1
 0 <= x264 <= 1
 0 <= x265 <= 1
 0 <= x266 <= 1
 0 <= x267 <= 1
 0 <= x268 <= 1
 0 <= x269 <= 1
 0 <= x270 <= 1
 0 <= x271 <= 1
 0 <= x272 <= 1
 0 <= x273 <= 1
 0 <= x274 <= 1
 0 <= x275 <= 1
 0 <= x276 <= 1
 0 <= x277 <= 1
 0 <= x278 <= 1
 0 <= x279 <= 1
 0 <= x280 <= 1
 0 <= x281 <= 1
 0 <= x282 <= 1
 0 <= x283 <= 1
 0 <= x284 <= 1
 0 <= x285 <= 1
 0 <= x286 <= 1
 0 <= x287 <= 1
 0 <= x288 <= 1
 0 <= x289 <= 1
 0 <= x290 <= 1
 0 <= x291 <= 1
 0 <= x292 <= 1
 0 <= x293 <= 1
 0 <= x294 <= 1
 0 <= x295 <= 1
 0 <= x296 <= 1
 0 <= x297 <= 1
 0 <= x298 <= 1
 0 <= x299 <= 1
 0 <= x300 <= 1
 0 <= x301 <= 1
 0 <= x302 <= 1
 0 <= x303 <= 1
 0 <= x304 <= 1
 0 <= x305 <= 1
 0 <= x306 <= 1
 0 <= x307 <= 1
 0 <= x308 <= 1
 0 <= x309 <= 1
 0 <= x310 <= 1
 0 <= x311 <= 1
 0 <= x312 <= 1
 0 <= x313 <= 1
 0 <= x314 <= 1
 0 <= x315 <= 1
 0 <= x316 <= 1
 0 <= x317 <= 1
 0 <= x318 <= 1
 0 <= x319 <= 1
 0 <= x320 <= 1
 0 <= x321 <= 1
 0 <= x322 <= 1
 0 <= x323 <= 1
 0 <= x324 <= 1
 0 <= x325 <= 1
 0 <= x326 <= 1
 0 <= x327 <= 1
 0 <= x328 <= 1
 0 <= x329 <= 1
 0 <= x330 <= 1
 0 <= x331 <= 1
 0 <= x332 <= 1
 0 <= x333 <= 1
 0 <= x334 <= 1
 0 <= x335 <= 1
 0 <= x336 <= 1
 0 <= x337 <= 1
 0 <= x338 <= 1
 0 <= x339 <= 1
 0 <= x340 <= 1
 0 <= x341 <= 1
 0 <= x342 <= 1
 0 <= x343 <= 1
 0 <= x344 <= 1
 0 <= x345 <= 1
 0 <= x346 <= 1
 0 <= x347 <= 1
 0 <= x348 <= 1
 0 <= x349 <= 1
 0 <= x350 <= 1
 0 <= x351 <= 1
 0 <= x352 <= 1
 0 <= x353 <= 1
 0 <= x354 <= 1
 0 <= x355 <= 1
 0 <= x356 <= 1
 0 <= x357 <= 1
 0 <= x358 <= 1
 0 <= x359 <= 1
 0 <= x360 <= 1
 0 <= x361 <= 1
 0 <= x362 <= 1
 0 <= x363 <= 1
 0 <= x364 <= 1
 0 <= x365 <= 1
 0 <= x366 <= 1
 0 <= x367 <= 1
 0 <= x368 <= 1
 0 <= x369 <= 1
 0 <= x370 <= 1
 0 <= x371 <= 1
 0 <= x372 <= 1
 0 <= x373 <= 1
 0 <= x374 <= 1
 0 <= x375 <= 1
 0 <= x376 <= 1
 0 <= x377 <= 1
 0 <= x378 <= 1
 0 <= x379 <= 1
 0 <= x380 <= 1
 0 <= x381 <= 1
 0 <= x382 <= 1
 0 <= x383 <= 1
 0 <= x384 <= 1
 0 <= x385 <= 1
 0 <= x386 <= 1
 0 <= x387 <= 1
 0 <= x388 <= 1
 0 <= x389 <= 1
 0 <= x390 <= 1
 0 <= x391 <= 1
 0 <= x392 <= 1
 0 <= x393 <= 1
 0 <= x394 <= 1
 0 <= x395 <= 1
 0 <= x396 <= 1
 0 <= x397 <= 1
 0 <= x398 <= 1
 0 <= x399 <= 1
 0 <= x400 <= 1
 0 <= x401 <= 1
 0 <= x402 <= 1
 0 <= x403 <= 1
 0 <= x404 <= 1
 0 <= x405 <= 1
 0 <= x406 <= 1
 0 <= x407 <= 1
 0 <= x408 <= 1
 0 <= x409 <= 1
 0 <= x410 <= 1
 0 <= x411 <= 1
 0 <= x412 <= 1
 0 <= x413 <= 1
 0 <= x414 <= 1
 0 <= x415 <= 1
 0 <= x416 <= 1
 0 <= x417 <= 1
 0 <= x418 <= 1
 0 <= x419 <= 1
 0 <= x420 <= 1
 0 <= x421 <= 1
 0 <= x422 <= 1
 0 <= x423 <= 1
 0 <= x424 <= 1
 0 <= x425 <= 1
 0 <= x426 <= 1
 0 <= x427 <= 1
 0 <= x428 <= 1
 0 <= x429 <= 1
 0 <= x430 <= 1
 0 <= x431 <= 1
 0 <= x432 <= 1
 0 <= x433 <= 1
 0 <= x434 <= 1
 0 <= x435 <= 1
 0 <= x436 <= 1
 0 <= x437 <= 1
 0 <= x438 <= 1
 0 <= x439 <= 1
 0 <= x440 <= 1
 0 <= x441 <= 1
 0 <= x442 <= 1
 0 <= x443 <= 1
 0 <= x444 <= 1
 0 <= x445 <= 1
 0 <= x446 <= 1
 0 <= x447 <= 1
 0 <= x448 <= 1
 0 <= x449 <= 1
 0 <= x450 <= 1
 0 <= x451 <= 1
 0 <= x452 <= 1
 0 <= x453 <= 1
 0 <= x454 <= 1
 0 <= x455 <= 1
 0 <= x456 <= 1
 0 <= x457 <= 1
 0 <= x458 <= 1
 0 <= x459 <= 1
 0 <= x460 <= 1
 0 <= x461 <= 1
 0 <= x462 <= 1
 0 <= x463 <= 1
 0 <= x464 <= 1
 0 <= x465 <= 1
 0 <= x466 <= 1
 0 <= x467 <= 1
 0 <= x468 <= 1
 0 <= x469 <= 1
 0 <= x470 <= 1
 0 <= x471 <= 1
 0 <= x472 <= 1
 0 <= x473 <= 1
 0 <= x474 <= 1
 0 <= x475 <= 1
 0 <= x476 <= 1
 0 <= x477 <= 1
 0 <= x478 <= 1
 0 <= x479 <= 1
 0 <= x480 <= 1
 0 <= x481 <= 1
 0 <= x482 <= 1
 0 <= x483 <= 1
 0 <= x484 <= 1
 0 <= x485 <= 1
 0 <= x486 <= 1
 0 <= x487 <= 1
 0 <= x488 <= 1
 0 <= x489 <= 1
 0 <= x490 <= 1
 0 <= x491 <= 1
 0 <= x492 <= 1
 0 <= x493 <= 1
 0 <= x494 <= 1
 0 <= x495 <= 1
 0 <= x496 <= 1
 0 <= x497 <= 1
 0 <= x498 <= 1
 0 <= x499 <= 1
 0 <= x500 <= 1
 0 <= x501 <= 1
 0 <= x502 <= 1
 0 <= x503 <= 1
 0 <= x504 <= 1
 0 <= x505 <= 1
 0 <= x506 <= 1
 0 <= x507 <= 1
 0 <= x508 <= 1
 0 <= x509 <= 1
 0 <= x510 <= 1
 0 <= x511 <= 1
 0 <= x512 <= 1
 0 <= x513 <= 1
 0 <= x514 <= 1
 0 <= x515 <= 1
 0 <= x516 <= 1
 0 <= x517 <= 1
 0 <= x518 <= 1
 0 <= x519 <= 1
 0 <= x520 <= 1
 0 <= x521 <= 1
 0 <= x522 <= 1
 0 <= x523 <= 1
 0 <= x524 <= 1
 0 <= x525 <= 1
 0 <= x526 <= 1
 0 <= x527 <= 1
 0 <= x528 <= 1
 0 <= x529 <= 1
 0 <= x530 <= 1
 0 <= x531 <= 1
 0 <= x532 <= 1
 0 <= x533 <= 1
 0 <= x534 <= 1
 0 <= x535 <= 1
 0 <= x536 <= 1
 0 <= x537 <= 1
 0 <= x538 <= 1
 0 <= x539 <= 1
 0 <= x540 <= 1
 0 <= x541 <= 1
 0 <= x542 <= 1
 0 <= x543 <= 1
 0 <= x544 <= 1
 0 <= x545 <= 1
 0 <= x546 <= 1
 0 <= x547 <= 1
 0 <= x548 <= 1
 0 <= x549 <= 1
 0 <= x550 <= 1
 0 <= x551 <= 1
 0 <= x552 <= 1
 0 <= x553 <= 1
 0 <= x554 <= 1
 0 <= x555 <= 1
 0 <= x556 <= 1
 0 <= x557 <= 1
 0 <= x558 <= 1
 0 <= x559 <= 1
 0 <= x560 <= 1
 0 <= x561 <= 1
 0 <= x562 <= 1
 0 <= x563 <= 1
 0 <= x564 <= 1
 0 <= x565 <= 1
 0 <= x566 <= 1
 0 <= x567 <= 1
 0 <= x568 <= 1
 0 <= x569 <= 1
 0 <= x570 <= 1
 0 <= x571 <= 1
 0 <= x572 <= 1
 0 <= x573 <= 1
 0 <= x574 <= 1
 0 <= x575 <= 1
 0 <= x576 <= 1
 0 <= x577 <= 1
 0 <= x578 <= 1
 0 <= x579 <= 1
 0 <= x580 <= 1
 0 <= x581 <= 1
 0 <= x582 <= 1
 0 <= x583 <= 1
 0 <= x584 <= 1
 0 <= x585 <= 1
 0 <= x586 <= 1
 0 <= x587 <= 1
 0 <= x588 <= 1
 0 <= x589 <= 1
 0 <= x590 <= 1
 0 <= x591 <= 1
 0 <= x592 <= 1
 0 <= x593 <= 1
 0 <= x594 <= 1
 0 <= x595 <= 1
 0 <= x596 <= 1
 0 <= x597 <= 1
 0 <= x598 <= 1
 0 <= x599 <= 1
 0 <= x600 <= 1
 0 <= x601 <= 1
 0 <= x602 <= 1
 0 <= x603 <= 1
 0 <= x604 <= 1
 0 <= x605 <= 1
 0 <= x606 <= 1
 0 <= x607 <= 1
 0 <= x608 <= 1
 0 <= x609 <= 1
 0 <= x610 <= 1
 0 <= x611 <= 1
 0 <= x612 <= 1
 0 <= x613 <= 1
 0 <= x614 <= 1
 0 <= x615 <= 1
 0 <= x616 <= 1
 0 <= x617 <= 1
 0 <= x618 <= 1
 0 <= x619 <= 1
 0 <= x620 <= 1
 0 <= x621 <= 1
 0 <= x622 <= 1
 0 <= x623 <= 1
 0 <= x624 <= 1
 0 <= x625 <= 1
 0 <= x626 <= 1
 0 <= x627 <= 1
 0 <= x628 <= 1
 0 <= x629 <= 1
 0 <= x630 <= 1
 0 <= x631 <= 1
 0 <= x632 <= 1
 0 <= x633 <= 1
 0 <= x634 <= 1
 0 <= x635 <= 1
 0 <= x636 <= 1
 0 <= x637 <= 1
 0 <= x638 <= 1
 0 <= x639 <= 1
 0 <= x640 <= 1
 0 <= x641 <= 1
 0 <= x642 <= 1
 0 <= x643 <= 1
 0 <= x644 <= 1
 0 <= x645 <= 1
 0 <= x646 <= 1
 0 <= x647 <= 1
 0 <= x648 <= 1
 0 <= x649 <= 1
 0 <= x650 <= 1
 0 <= x651 <= 1
 0 <= x652 <= 1
 0 <= x653 <= 1
 0 <= x654 <= 1
 0 <= x655 <= 1
 0 <= x656 <= 1
 0 <= x657 <= 1
 0 <= x658 <= 1
 0 <= x659 <= 1
 0 <= x660 <= 1
Binaries
 x601  x602  x603  x604  x605  x606  x607  x608  x609  x610  x611  x612  x613 
 x614  x615  x616  x617  x618  x619  x620  x621  x622  x623  x624  x625  x626 
 x627  x628  x629  x630  x631  x632  x633  x634  x635  x636  x637  x638  x639 
 x640  x641  x642  x643  x644  x645  x646  x647  x648  x649  x650  x651  x652 
 x653  x654  x655  x656  x657  x658  x659  x660 
End
